NAME: ETSP
COMMENT: Generated by write_TSPLIB (R package TSP)
TYPE: TSP
DIMENSION: 100
EDGE_WEIGHT_TYPE: EUC_2D
NODE_COORD_SECTION
1 0.000000e+00 0.000000e+00
2 1.000000e+01 0.000000e+00
3 2.000000e+01 0.000000e+00
4 3.000000e+01 0.000000e+00
5 4.000000e+01 0.000000e+00
6 5.000000e+01 0.000000e+00
7 6.000000e+01 0.000000e+00
8 7.000000e+01 0.000000e+00
9 8.000000e+01 0.000000e+00
10 9.000000e+01 0.000000e+00
11 0.000000e+00 1.000000e+01
12 1.000000e+01 1.000000e+01
13 2.000000e+01 1.000000e+01
14 3.000000e+01 1.000000e+01
15 4.000000e+01 1.000000e+01
16 5.000000e+01 1.000000e+01
17 6.000000e+01 1.000000e+01
18 7.000000e+01 1.000000e+01
19 8.000000e+01 1.000000e+01
20 9.000000e+01 1.000000e+01
21 0.000000e+00 2.000000e+01
22 1.000000e+01 2.000000e+01
23 2.000000e+01 2.000000e+01
24 3.000000e+01 2.000000e+01
25 4.000000e+01 2.000000e+01
26 5.000000e+01 2.000000e+01
27 6.000000e+01 2.000000e+01
28 7.000000e+01 2.000000e+01
29 8.000000e+01 2.000000e+01
30 9.000000e+01 2.000000e+01
31 0.000000e+00 3.000000e+01
32 1.000000e+01 3.000000e+01
33 2.000000e+01 3.000000e+01
34 3.000000e+01 3.000000e+01
35 4.000000e+01 3.000000e+01
36 5.000000e+01 3.000000e+01
37 6.000000e+01 3.000000e+01
38 7.000000e+01 3.000000e+01
39 8.000000e+01 3.000000e+01
40 9.000000e+01 3.000000e+01
41 0.000000e+00 4.000000e+01
42 1.000000e+01 4.000000e+01
43 2.000000e+01 4.000000e+01
44 3.000000e+01 4.000000e+01
45 4.000000e+01 4.000000e+01
46 5.000000e+01 4.000000e+01
47 6.000000e+01 4.000000e+01
48 7.000000e+01 4.000000e+01
49 8.000000e+01 4.000000e+01
50 9.000000e+01 4.000000e+01
51 0.000000e+00 5.000000e+01
52 1.000000e+01 5.000000e+01
53 2.000000e+01 5.000000e+01
54 3.000000e+01 5.000000e+01
55 4.000000e+01 5.000000e+01
56 5.000000e+01 5.000000e+01
57 6.000000e+01 5.000000e+01
58 7.000000e+01 5.000000e+01
59 8.000000e+01 5.000000e+01
60 9.000000e+01 5.000000e+01
61 0.000000e+00 6.000000e+01
62 1.000000e+01 6.000000e+01
63 2.000000e+01 6.000000e+01
64 3.000000e+01 6.000000e+01
65 4.000000e+01 6.000000e+01
66 5.000000e+01 6.000000e+01
67 6.000000e+01 6.000000e+01
68 7.000000e+01 6.000000e+01
69 8.000000e+01 6.000000e+01
70 9.000000e+01 6.000000e+01
71 0.000000e+00 7.000000e+01
72 1.000000e+01 7.000000e+01
73 2.000000e+01 7.000000e+01
74 3.000000e+01 7.000000e+01
75 4.000000e+01 7.000000e+01
76 5.000000e+01 7.000000e+01
77 6.000000e+01 7.000000e+01
78 7.000000e+01 7.000000e+01
79 8.000000e+01 7.000000e+01
80 9.000000e+01 7.000000e+01
81 0.000000e+00 8.000000e+01
82 1.000000e+01 8.000000e+01
83 2.000000e+01 8.000000e+01
84 3.000000e+01 8.000000e+01
85 4.000000e+01 8.000000e+01
86 5.000000e+01 8.000000e+01
87 6.000000e+01 8.000000e+01
88 7.000000e+01 8.000000e+01
89 8.000000e+01 8.000000e+01
90 9.000000e+01 8.000000e+01
91 0.000000e+00 9.000000e+01
92 1.000000e+01 9.000000e+01
93 2.000000e+01 9.000000e+01
94 3.000000e+01 9.000000e+01
95 4.000000e+01 9.000000e+01
96 5.000000e+01 9.000000e+01
97 6.000000e+01 9.000000e+01
98 7.000000e+01 9.000000e+01
99 8.000000e+01 9.000000e+01
100 9.000000e+01 9.000000e+01
EOF
